c WARNING: for repeatability, setting FPU to use double precision
d VARIABLES            61802        
d CONSTRAINTS          262890       
c ============================[ Problem Statistics ]=============================
c |                                                                             |
c |  Number of variables:         61802                                         |
c |  Number of clauses:          262890                                         |
c |  Parse time:                   0.03 s                                       |
c |                                                                             |
c ============================[ Search Statistics ]==============================
c | Conflicts |          ORIGINAL         |          LEARNT          | Progress |
c |           |    Vars  Clauses Literals |    Limit  Clauses Lit/Cl |          |
c ===============================================================================
c |       100 |   49206   227010   552772 |    83237      100     73 | 20.381 % |
c |       250 |   49206   227010   552772 |    91560      250     53 | 20.381 % |
c |       475 |   49206   227010   552772 |   100716      475     58 | 20.381 % |
c |       812 |   49206   227010   552772 |   110788      812     57 | 20.381 % |
c |      1318 |   49206   227010   552772 |   121867     1318     71 | 20.381 % |
c |      2077 |   49206   227010   552772 |   134054     2077     73 | 20.381 % |
c |      3216 |   49206   227010   552772 |   147459     3216     81 | 20.381 % |
c |      4924 |   49206   227010   552772 |   162205     4924    102 | 20.381 % |
c |      7486 |   49206   227010   552772 |   178425     7486    114 | 20.381 % |
c |     11330 |   49206   227010   552772 |   196268    11330    128 | 20.381 % |
c ===============================================================================
c restarts              : 62
c conflicts             : 15507          (4034 /sec)
c decisions             : 77270          (0.00 % random) (20100 /sec)
c propagations          : 22214766       (5778715 /sec)
c conflict literals     : 2023208        (13.48 % deleted)
d RESTARTS             62
d FAILURES             15507        
d NODES                77270        
d BACKTRACKS           77270        
d PROPAGATIONS         22214766     
d NOGOODSIZE           130.47 
d MEMORY               38.00 
d TIME                 3.84424 

s SATISFIABLE
